cpu-bind=MASK - n2lcn0125, task  0  0 [3872874]: mask |--------|--------||--------|--------||--------|--------||--------|--------||||--------|--------||--------|BBBB----||--------|--------||--------|--------|  set
started at Fri Mar 17 08:50:08 CET 2023
Timecheck 10000965.919391768
Set parameter TokenServer to value "license3.uni-paderborn.de"
Warning: Gurobi version mismatch between Python 10.0.1 and C library 10.0.0
Timecheck 10000965.934842767
Timecheck 10000965.93507265
Timecheck 10000965.93510983
Timecheck 10000965.93513456


####################################################################################################
Solve scenario sce_3_26_3 with free vessel operation using the arc flow model
Vessels cannot omit ports, Demands cannot be rejected
####################################################################################################
Data preprocessing, load /upb/departments/pc2/groups/hpc-prf-winf4/dwetzel/SILSRP/inst_final/sce_3_26_3
and create additional sets and parameters
	|- Read vessel information, number of vessels:	10
	|- Read node information, number of nodes:		373
	|- Read arc information
		|- Number of sailing arcs:			1531
		|- Number of transshipment arcs:	724
	|- Read container information
		|- Number of demands:		740
		|- Number of empties (+/-):	159/156
	|- Create additional sets and parameters

Data preprocessing took 	00:00:00.238
####################################################################################################
Create linear model
Set parameter Threads to value 4
	|- Create variables, took	00:00:00.307
	|- Create objective, took	00:00:00.264
	|- Create constraints, took	00:00:01.160
	|- Load heuristic start

Creating model took	00:00:01.792
####################################################################################################
Fix start solution

Set parameter TimeLimit to value 8.6332069209970534e+04
Gurobi Optimizer version 10.0.0 build v10.0.0rc2 (linux64)

CPU model: AMD EPYC 7763 64-Core Processor, instruction set [SSE2|AVX|AVX2]
Thread count: 128 physical cores, 128 logical processors, using up to 4 threads

Optimize a model with 24502 rows, 83492 columns and 306572 nonzeros
Model fingerprint: 0x1163e320
Variable types: 67080 continuous, 16412 integer (16412 binary)
Coefficient statistics:
  Matrix range     [1e+00, 1e+07]
  Objective range  [1e+00, 1e+00]
  Bounds range     [1e+00, 2e+03]
  RHS range        [1e+00, 2e+09]
Warning: Model contains large rhs
         Consider reformulating model or setting NumericFocus parameter
         to avoid numerical issues.
Presolve removed 21697 rows and 76256 columns
Presolve time: 0.20s
Presolved: 2805 rows, 7236 columns, 20602 nonzeros
Variable types: 6649 continuous, 587 integer (587 binary)
Found heuristic solution: objective 2.865021e+08

Root relaxation: objective 1.897325e+07, 1010 iterations, 0.01 seconds (0.01 work units)

    Nodes    |    Current Node    |     Objective Bounds      |     Work
 Expl Unexpl |  Obj  Depth IntInf | Incumbent    BestBd   Gap | It/Node Time

*    0     0               0    1.897325e+07 1.8973e+07  0.00%     -    0s

Explored 1 nodes (1010 simplex iterations) in 0.30 seconds (0.26 work units)
Thread count was 4 (of 128 available processors)

Solution count 2: 1.89732e+07 2.86502e+08 

Optimal solution found (tolerance 1.00e-04)
Best objective 1.897324600000e+07, best bound 1.897324600000e+07, gap 0.0000%

Fixing start solution took	00:00:02.142
####################################################################################################
####################################################################################################
Solve optimization model

Set parameter TimeLimit to value 8.6331748196927831e+04
Gurobi Optimizer version 10.0.0 build v10.0.0rc2 (linux64)

CPU model: AMD EPYC 7763 64-Core Processor, instruction set [SSE2|AVX|AVX2]
Thread count: 128 physical cores, 128 logical processors, using up to 4 threads

Optimize a model with 24130 rows, 83492 columns and 306200 nonzeros
Model fingerprint: 0x8178580d
Variable types: 67080 continuous, 16412 integer (16412 binary)
Coefficient statistics:
  Matrix range     [1e+00, 1e+07]
  Objective range  [1e+00, 1e+00]
  Bounds range     [1e+00, 2e+03]
  RHS range        [1e+00, 2e+09]
Warning: Model contains large rhs
         Consider reformulating model or setting NumericFocus parameter
         to avoid numerical issues.

MIP start from previous solve produced solution with objective 1.89732e+07 (0.18s)
Loaded MIP start from previous solve with objective 1.89732e+07

Presolve removed 5308 rows and 9315 columns
Presolve time: 0.80s
Presolved: 18822 rows, 74177 columns, 219684 nonzeros
Variable types: 59836 continuous, 14341 integer (14341 binary)
Deterministic concurrent LP optimizer: primal and dual simplex
Showing first log only...


Root simplex log...

Iteration    Objective       Primal Inf.    Dual Inf.      Time
   34523    1.8514242e+09   3.296428e+02   1.043061e+10      5s
   59562    1.8514183e+09   5.227028e+01   5.624810e+09     10s
   75091    1.8514163e+09   1.164478e+01   4.097075e+09     15s
   86704    3.4694583e+08   0.000000e+00   1.833809e+08     19s
   89121    2.2024708e+07   0.000000e+00   2.404913e+09     20s
  105987    1.7061928e+07   0.000000e+00   3.157372e+07     25s
  121476    1.5944683e+07   0.000000e+00   1.479778e+07     30s
  135779    1.5313353e+07   0.000000e+00   5.802564e+07     35s
  150578    1.4850716e+07   0.000000e+00   1.467292e+07     40s
  164875    1.4527160e+07   0.000000e+00   8.747570e+06     45s
  178994    1.4293712e+07   0.000000e+00   1.098357e+08     50s
  192610    1.4111955e+07   0.000000e+00   4.168298e+06     55s
  206728    1.3985829e+07   0.000000e+00   4.618869e+06     60s
  220844    1.3898206e+07   0.000000e+00   9.184527e+06     65s
  235292    1.3838425e+07   0.000000e+00   3.139475e+06     70s
  246212    1.3798119e+07   0.000000e+00   9.701168e+05     75s
  255284    1.3775495e+07   0.000000e+00   5.947551e+05     80s
  264357    1.3767571e+07   0.000000e+00   3.557487e+03     85s
  264512    1.3767572e+07   0.000000e+00   0.000000e+00     85s
Concurrent spin time: 10.24s

Solved with dual simplex

Root simplex log...

Iteration    Objective       Primal Inf.    Dual Inf.      Time
  116672    1.3767572e+07   0.000000e+00   0.000000e+00     95s

Root relaxation: objective 1.376757e+07, 116672 iterations, 94.40 seconds (70.67 work units)

    Nodes    |    Current Node    |     Objective Bounds      |     Work
 Expl Unexpl |  Obj  Depth IntInf | Incumbent    BestBd   Gap | It/Node Time

     0     0 1.3768e+07    0 2622 1.8973e+07 1.3768e+07  27.4%     -   96s
     0     0 1.3768e+07    0 2593 1.8973e+07 1.3768e+07  27.4%     -   98s
     0     0 1.3768e+07    0 2605 1.8973e+07 1.3768e+07  27.4%     -   98s
     0     0 1.3768e+07    0 2611 1.8973e+07 1.3768e+07  27.4%     -   98s
     0     0 1.3769e+07    0 2695 1.8973e+07 1.3769e+07  27.4%     -  100s
     0     0 1.3770e+07    0 2672 1.8973e+07 1.3770e+07  27.4%     -  102s
     0     0 1.3770e+07    0 2678 1.8973e+07 1.3770e+07  27.4%     -  102s
     0     0 1.3770e+07    0 2674 1.8973e+07 1.3770e+07  27.4%     -  102s
     0     0 1.3770e+07    0 2675 1.8973e+07 1.3770e+07  27.4%     -  102s
     0     0 1.3770e+07    0 2661 1.8973e+07 1.3770e+07  27.4%     -  103s
     0     0 1.3770e+07    0 2669 1.8973e+07 1.3770e+07  27.4%     -  103s
     0     0 1.4472e+07    0 2592 1.8973e+07 1.4472e+07  23.7%     -  223s
     0     0 1.4560e+07    0 2633 1.8973e+07 1.4560e+07  23.3%     -  294s
     0     0 1.4570e+07    0 2623 1.8973e+07 1.4570e+07  23.2%     -  317s
     0     0 1.4570e+07    0 2643 1.8973e+07 1.4570e+07  23.2%     -  324s
     0     0 1.4571e+07    0 2653 1.8973e+07 1.4571e+07  23.2%     -  325s
     0     0 1.4812e+07    0 2713 1.8973e+07 1.4812e+07  21.9%     -  445s
     0     0 1.4812e+07    0 2715 1.8973e+07 1.4812e+07  21.9%     -  445s
     0     0 1.4812e+07    0 2713 1.8973e+07 1.4812e+07  21.9%     -  445s
     0     0 1.4812e+07    0 2772 1.8973e+07 1.4812e+07  21.9%     -  446s
     0     0 1.4812e+07    0 2782 1.8973e+07 1.4812e+07  21.9%     -  447s
     0     0 1.4812e+07    0 2789 1.8973e+07 1.4812e+07  21.9%     -  447s
     0     0 1.4812e+07    0 2783 1.8973e+07 1.4812e+07  21.9%     -  447s
     0     0 1.4813e+07    0 2735 1.8973e+07 1.4813e+07  21.9%     -  455s
     0     0 1.4915e+07    0 2726 1.8973e+07 1.4915e+07  21.4%     -  561s
     0     0 1.4915e+07    0 2748 1.8973e+07 1.4915e+07  21.4%     -  574s
     0     0 1.4915e+07    0 2748 1.8973e+07 1.4915e+07  21.4%     -  574s
     0     0 1.4915e+07    0 2772 1.8973e+07 1.4915e+07  21.4%     -  590s
     0     0 1.4915e+07    0 2766 1.8973e+07 1.4915e+07  21.4%     -  619s
     0     0 1.4941e+07    0 2733 1.8973e+07 1.4941e+07  21.3%     -  672s
     0     0 1.4946e+07    0 2757 1.8973e+07 1.4946e+07  21.2%     -  698s
     0     0 1.4947e+07    0 2715 1.8973e+07 1.4947e+07  21.2%     -  710s
     0     0 1.4947e+07    0 2728 1.8973e+07 1.4947e+07  21.2%     -  714s
     0     0 1.4947e+07    0 2715 1.8973e+07 1.4947e+07  21.2%     -  715s
     0     0 1.5122e+07    0 2741 1.8973e+07 1.5122e+07  20.3%     -  849s
     0     0 1.5122e+07    0 2762 1.8973e+07 1.5122e+07  20.3%     -  852s
     0     0 1.5125e+07    0 2754 1.8973e+07 1.5125e+07  20.3%     -  871s
     0     0 1.5125e+07    0 2782 1.8973e+07 1.5125e+07  20.3%     -  903s
     0     0 1.5125e+07    0 2777 1.8973e+07 1.5125e+07  20.3%     -  904s
     0     0 1.5125e+07    0 2768 1.8973e+07 1.5125e+07  20.3%     -  904s
     0     0 1.5125e+07    0 2746 1.8973e+07 1.5125e+07  20.3%     -  907s
     0     0 1.5125e+07    0 2741 1.8973e+07 1.5125e+07  20.3%     -  907s
     0     0 1.5126e+07    0 2755 1.8973e+07 1.5126e+07  20.3%     -  914s
     0     0 1.5126e+07    0 2752 1.8973e+07 1.5126e+07  20.3%     -  914s
     0     0 1.5126e+07    0 2750 1.8973e+07 1.5126e+07  20.3%     -  920s
     0     0 1.5223e+07    0 2799 1.8973e+07 1.5223e+07  19.8%     - 1066s
     0     0 1.5223e+07    0 2753 1.8973e+07 1.5223e+07  19.8%     - 1103s
     0     0 1.5255e+07    0 2796 1.8973e+07 1.5255e+07  19.6%     - 1173s
     0     0 1.5255e+07    0 2828 1.8973e+07 1.5255e+07  19.6%     - 1200s
     0     0 1.5270e+07    0 2784 1.8973e+07 1.5270e+07  19.5%     - 1251s
     0     0 1.5270e+07    0 2793 1.8973e+07 1.5270e+07  19.5%     - 1266s
     0     0 1.5280e+07    0 2777 1.8973e+07 1.5280e+07  19.5%     - 1360s
     0     0 1.5284e+07    0 2757 1.8973e+07 1.5284e+07  19.4%     - 1384s
     0     0 1.5284e+07    0 2769 1.8973e+07 1.5284e+07  19.4%     - 1389s
     0     0 1.5284e+07    0 2765 1.8973e+07 1.5284e+07  19.4%     - 1390s
     0     0 1.5405e+07    0 2781 1.8973e+07 1.5405e+07  18.8%     - 1520s
     0     0 1.5440e+07    0 2702 1.8973e+07 1.5440e+07  18.6%     - 1595s
     0     0 1.5440e+07    0 2713 1.8973e+07 1.5440e+07  18.6%     - 1607s
     0     0 1.5450e+07    0 2642 1.8973e+07 1.5450e+07  18.6%     - 1656s
     0     0 1.5450e+07    0 2656 1.8973e+07 1.5450e+07  18.6%     - 1658s
     0     0 1.5454e+07    0 2685 1.8973e+07 1.5454e+07  18.5%     - 1699s
     0     0 1.5457e+07    0 2700 1.8973e+07 1.5457e+07  18.5%     - 1726s
     0     0 1.5458e+07    0 2749 1.8973e+07 1.5458e+07  18.5%     - 1737s
     0     0 1.5458e+07    0 2736 1.8973e+07 1.5458e+07  18.5%     - 1743s
     0     0 1.5518e+07    0 2743 1.8973e+07 1.5518e+07  18.2%     - 1861s
     0     0 1.5542e+07    0 2613 1.8973e+07 1.5542e+07  18.1%     - 1959s
     0     0 1.5542e+07    0 2609 1.8973e+07 1.5542e+07  18.1%     - 1985s
     0     0 1.5549e+07    0 2674 1.8973e+07 1.5549e+07  18.0%     - 2043s
     0     0 1.5552e+07    0 2636 1.8973e+07 1.5552e+07  18.0%     - 2079s
     0     0 1.5552e+07    0 2592 1.8973e+07 1.5552e+07  18.0%     - 2097s
     0     0 1.5553e+07    0 2661 1.8973e+07 1.5553e+07  18.0%     - 2122s
     0     0 1.5581e+07    0 2683 1.8973e+07 1.5581e+07  17.9%     - 2335s
     0     0 1.5581e+07    0 2685 1.8973e+07 1.5581e+07  17.9%     - 2335s
     0     0 1.5582e+07    0 2687 1.8973e+07 1.5582e+07  17.9%     - 2353s
     0     0 1.5582e+07    0 2688 1.8973e+07 1.5582e+07  17.9%     - 2356s
     0     0 1.5593e+07    0 2697 1.8973e+07 1.5593e+07  17.8%     - 2577s
     0     0 1.5598e+07    0 2739 1.8973e+07 1.5598e+07  17.8%     - 2663s
     0     0 1.5598e+07    0 2690 1.8973e+07 1.5598e+07  17.8%     - 2693s
     0     0 1.5601e+07    0 2751 1.8973e+07 1.5601e+07  17.8%     - 2764s
     0     0 1.5601e+07    0 2809 1.8973e+07 1.5601e+07  17.8%     - 2787s
     0     0 1.5601e+07    0 2690 1.8973e+07 1.5601e+07  17.8%     - 2840s
     0     0 1.5612e+07    0 2687 1.8973e+07 1.5612e+07  17.7%     - 2977s
     0     0 1.5618e+07    0 2666 1.8973e+07 1.5618e+07  17.7%     - 3048s
     0     0 1.5619e+07    0 2676 1.8973e+07 1.5619e+07  17.7%     - 3078s
     0     0 1.5620e+07    0 2673 1.8973e+07 1.5620e+07  17.7%     - 3095s
     0     0 1.5626e+07    0 2619 1.8973e+07 1.5626e+07  17.6%     - 3160s
     0     0 1.5626e+07    0 2627 1.8973e+07 1.5626e+07  17.6%     - 3169s
     0     0 1.5629e+07    0 2662 1.8973e+07 1.5629e+07  17.6%     - 3204s
     0     0 1.5629e+07    0 2707 1.8973e+07 1.5629e+07  17.6%     - 3211s
     0     0 1.5631e+07    0 2632 1.8973e+07 1.5631e+07  17.6%     - 3235s
     0     0 1.5631e+07    0 2628 1.8973e+07 1.5631e+07  17.6%     - 3286s
     0     0 1.5638e+07    0 2635 1.8973e+07 1.5638e+07  17.6%     - 3355s
     0     0 1.5642e+07    0 2655 1.8973e+07 1.5642e+07  17.6%     - 3406s
     0     0 1.5642e+07    0 2575 1.8973e+07 1.5642e+07  17.6%     - 3480s
     0     0 1.5644e+07    0 2608 1.8973e+07 1.5644e+07  17.5%     - 3523s
     0     0 1.5644e+07    0 2636 1.8973e+07 1.5644e+07  17.5%     - 3525s
     0     0 1.5644e+07    0 2606 1.8973e+07 1.5644e+07  17.5%     - 3547s
     0     0 1.5644e+07    0 2645 1.8973e+07 1.5644e+07  17.5%     - 3556s
     0     0 1.5648e+07    0 2591 1.8973e+07 1.5648e+07  17.5%     - 3683s
     0     0 1.5648e+07    0 2604 1.8973e+07 1.5648e+07  17.5%     - 3719s
     0     0 1.5648e+07    0 2541 1.8973e+07 1.5648e+07  17.5%     - 3757s
     0     2 1.5648e+07    0 2541 1.8973e+07 1.5648e+07  17.5%     - 3807s
     1     4 1.5689e+07    1 2651 1.8973e+07 1.5648e+07  17.5% 39704 3917s
     3     8 1.5744e+07    2 2569 1.8973e+07 1.5657e+07  17.5% 42104 4216s
     7    12 1.5752e+07    3 2652 1.8973e+07 1.5673e+07  17.4% 40196 4608s
    11    16 1.5935e+07    3 2620 1.8973e+07 1.5673e+07  17.4% 53847 4909s
    15    20 1.5778e+07    4 2529 1.8973e+07 1.5697e+07  17.3% 53361 4963s
    19    24 1.5767e+07    4 2605 1.8973e+07 1.5697e+07  17.3% 48862 5027s
    23    28 1.5811e+07    5 2477 1.8973e+07 1.5697e+07  17.3% 50390 5083s
    27    32 1.5784e+07    5 2568 1.8973e+07 1.5697e+07  17.3% 47684 5234s
    31    37 1.5817e+07    6 2541 1.8973e+07 1.5697e+07  17.3% 45152 5643s
    36    41 1.5804e+07    6 2578 1.8973e+07 1.5697e+07  17.3% 42212 5821s
    40    45 1.5814e+07    7 2559 1.8973e+07 1.5697e+07  17.3% 40610 6057s
    44    49 1.5822e+07    8 2558 1.8973e+07 1.5697e+07  17.3% 39582 6615s
    48    53 1.5902e+07    9 2600 1.8973e+07 1.5697e+07  17.3% 41059 7253s
    52    59 1.5903e+07   10 2574 1.8973e+07 1.5697e+07  17.3% 39471 7447s
    58    64 1.5958e+07   11 2529 1.8973e+07 1.5697e+07  17.3% 38887 8021s
    63    72 1.5958e+07   12 2525 1.8973e+07 1.5697e+07  17.3% 39922 8333s
    71    80 1.5974e+07   16 2507 1.8973e+07 1.5697e+07  17.3% 39441 10209s
    79    89 1.6179e+07   17 2494 1.8973e+07 1.5697e+07  17.3% 43860 10688s
    88    95 1.6028e+07   17 2551 1.8973e+07 1.5697e+07  17.3% 41583 10916s
    94   101 1.6070e+07   18 2495 1.8973e+07 1.5697e+07  17.3% 40734 11381s
   100   109 1.6253e+07   19 2484 1.8973e+07 1.5697e+07  17.3% 41188 11816s
   108   116 1.6266e+07   19 2422 1.8973e+07 1.5697e+07  17.3% 40053 12195s
   115   127 1.6550e+07   20 2333 1.8973e+07 1.5697e+07  17.3% 39441 13931s
   126   134 1.6363e+07   21 2431 1.8973e+07 1.5697e+07  17.3% 40017 14274s
   133   144 1.6368e+07   22 2373 1.8973e+07 1.5697e+07  17.3% 39823 14697s
   143   157 1.6397e+07   25 2327 1.8973e+07 1.5697e+07  17.3% 39715 15218s
   156   168 1.6401e+07   28 2338 1.8973e+07 1.5697e+07  17.3% 38587 16174s
   167   184 1.6422e+07   32 2313 1.8973e+07 1.5697e+07  17.3% 39955 16744s
   183   199 1.6863e+07   34 2301 1.8973e+07 1.5697e+07  17.3% 38910 17294s
   198   214 1.6614e+07   34 2317 1.8973e+07 1.5697e+07  17.3% 37886 17987s
   213   230 1.6619e+07   36 2246 1.8973e+07 1.5697e+07  17.3% 37079 18618s
   229   250 1.6622e+07   40 2322 1.8973e+07 1.5697e+07  17.3% 36288 19336s
   249   270 1.6663e+07   45 2242 1.8973e+07 1.5697e+07  17.3% 35257 19947s
   269   285 1.6664e+07   46 2201 1.8973e+07 1.5697e+07  17.3% 34464 20974s
   284   304 1.6697e+07   47 2158 1.8973e+07 1.5697e+07  17.3% 34957 21615s
   305   321 1.6707e+07   52 2162 1.8973e+07 1.5697e+07  17.3% 33763 22333s
   326   343 1.6731e+07   56 2135 1.8973e+07 1.5697e+07  17.3% 33103 22989s
   348   370 1.6800e+07   59 2187 1.8973e+07 1.5697e+07  17.3% 32481 23729s
   375   390 1.6843e+07   65 2134 1.8973e+07 1.5697e+07  17.3% 31507 24330s
   395   430 1.6849e+07   67 2114 1.8973e+07 1.5697e+07  17.3% 31011 25012s
   435   460 1.6926e+07   72 2075 1.8973e+07 1.5697e+07  17.3% 29506 25871s
   469   492 1.7092e+07   75 1979 1.8973e+07 1.5697e+07  17.3% 28747 26589s
   505   534 1.7068e+07   76 1976 1.8973e+07 1.5697e+07  17.3% 27876 27295s
   549   590 1.6980e+07   78 2016 1.8973e+07 1.5697e+07  17.3% 26682 27953s
   607   641 infeasible   87      1.8973e+07 1.5697e+07  17.3% 25348 29079s
   662   684 1.7083e+07  103 1881 1.8973e+07 1.5697e+07  17.3% 23988 30081s
   707   745 1.7141e+07  116 1860 1.8973e+07 1.5697e+07  17.3% 23252 30785s
   770   852 1.7418e+07  125 1820 1.8973e+07 1.5697e+07  17.3% 22208 31639s
H  892   880                    1.892702e+07 1.5697e+07  17.1% 19973 32328s
   940   905 1.7331e+07  140 1747 1.8927e+07 1.5697e+07  17.1% 19680 32980s
   967   954 1.7798e+07  145 1617 1.8927e+07 1.5697e+07  17.1% 19793 33608s
  1016  1011 1.7493e+07  151 1747 1.8927e+07 1.5697e+07  17.1% 19448 35090s
  1076  1090 1.7916e+07  158 1613 1.8927e+07 1.5697e+07  17.1% 19001 36009s
H 1097  1059                    1.871708e+07 1.5697e+07  16.1% 18820 36009s
  1161  1085 1.7749e+07  173 1683 1.8717e+07 1.5697e+07  16.1% 18196 36770s
  1199  1124 1.7932e+07  185 1545 1.8717e+07 1.5697e+07  16.1% 18378 37486s
H 1238  1210                    1.871694e+07 1.5697e+07  16.1% 18393 38233s
  1324  1308 1.8167e+07  227 1462 1.8717e+07 1.5697e+07  16.1% 17870 39163s
  1424  1334 1.8223e+07  262 1452 1.8717e+07 1.5697e+07  16.1% 17313 41089s
  1450  1462 1.8224e+07  263 1459 1.8717e+07 1.5719e+07  16.0% 17153 42268s
  1594  1569 1.5848e+07    5 2280 1.8717e+07 1.5719e+07  16.0% 16397 43199s
  1722  1570 1.6951e+07   72 2541 1.8717e+07 1.5719e+07  16.0% 15823 44160s
  1724  1571 1.8381e+07  291 2614 1.8717e+07 1.5719e+07  16.0% 15805 44274s
  1725  1572 1.8125e+07  150 2567 1.8717e+07 1.5719e+07  16.0% 15795 44439s
  1726  1573 1.7155e+07   84 2686 1.8717e+07 1.5719e+07  16.0% 15786 44572s
  1727  1573 1.7618e+07  148 2765 1.8717e+07 1.5719e+07  16.0% 15777 44742s
  1728  1574 1.6801e+07   63 2738 1.8717e+07 1.5719e+07  16.0% 15768 44946s
  1729  1575 1.6920e+07   64 2584 1.8717e+07 1.5719e+07  16.0% 15759 45120s
  1730  1575 1.6669e+07  107 2591 1.8717e+07 1.5719e+07  16.0% 15750 45279s
  1731  1576 1.8014e+07  202 2650 1.8717e+07 1.5719e+07  16.0% 15741 45417s
  1732  1577 1.7653e+07  159 2563 1.8717e+07 1.5719e+07  16.0% 15732 45572s
  1733  1577 1.6448e+07   72 2626 1.8717e+07 1.5719e+07  16.0% 15722 45683s
  1734  1578 1.7095e+07   79 2554 1.8717e+07 1.5719e+07  16.0% 15713 45768s
  1735  1579 1.8663e+07  148 2531 1.8717e+07 1.5719e+07  16.0% 15704 45848s
  1736  1579 1.7905e+07  122 2528 1.8717e+07 1.5719e+07  16.0% 15695 45882s
  1737  1580 1.7006e+07   71 2562 1.8717e+07 1.5719e+07  16.0% 15686 45907s
  1738  1581 1.7468e+07   97 2605 1.8717e+07 1.5719e+07  16.0% 15677 45942s
  1739  1581 1.6309e+07   43 2594 1.8717e+07 1.5719e+07  16.0% 15668 45971s
  1740  1582 1.7985e+07  122 2590 1.8717e+07 1.5719e+07  16.0% 15659 45998s
  1741  1583 1.7269e+07   92 2562 1.8717e+07 1.5719e+07  16.0% 15650 46141s
  1742  1583 1.8196e+07  124 2623 1.8717e+07 1.5719e+07  16.0% 15641 46218s
  1743  1584 1.7704e+07  137 2576 1.8717e+07 1.5719e+07  16.0% 15632 46271s
  1744  1585 1.8084e+07  145 2543 1.8717e+07 1.5719e+07  16.0% 15623 46297s
  1745  1585 1.6467e+07   90 2537 1.8717e+07 1.5719e+07  16.0% 15614 46317s
  1746  1586 1.7626e+07   94 2527 1.8717e+07 1.5719e+07  16.0% 15605 46334s
  1747  1587 1.6274e+07   42 2494 1.8717e+07 1.5719e+07  16.0% 15596 46395s
  1748  1587 1.6370e+07   56 2513 1.8717e+07 1.5719e+07  16.0% 15588 46421s
  1749  1588 1.8384e+07  136 2482 1.8717e+07 1.5719e+07  16.0% 15579 46452s
  1750  1589 1.7581e+07  130 2512 1.8717e+07 1.5719e+07  16.0% 15570 46472s
  1751  1589 1.7154e+07  104 2508 1.8717e+07 1.5719e+07  16.0% 15561 46524s
  1752  1590 1.6722e+07   91 2502 1.8717e+07 1.5719e+07  16.0% 15552 46539s
  1753  1591 1.7082e+07  102 2495 1.8717e+07 1.5719e+07  16.0% 15543 46553s
  1754  1591 1.7796e+07  110 2500 1.8717e+07 1.5719e+07  16.0% 15534 46595s
  1755  1592 1.6617e+07   78 2513 1.8717e+07 1.5719e+07  16.0% 15525 46615s
  1756  1593 1.8623e+07  187 2470 1.8717e+07 1.5719e+07  16.0% 15517 46644s
  1757  1593 1.8452e+07  146 2476 1.8717e+07 1.5719e+07  16.0% 15508 46663s
  1758  1594 1.6604e+07   75 2438 1.8717e+07 1.5719e+07  16.0% 15499 46693s
  1759  1595 1.6093e+07   30 2466 1.8717e+07 1.5719e+07  16.0% 15490 46707s
  1760  1595 1.6435e+07   54 2488 1.8717e+07 1.5719e+07  16.0% 15481 46724s
  1761  1596 1.8593e+07  190 2488 1.8717e+07 1.5719e+07  16.0% 15472 46787s
  1762  1597 1.6667e+07   62 2488 1.8717e+07 1.5719e+07  16.0% 15464 46840s
  1763  1600 1.5719e+07   14 2416 1.8717e+07 1.5719e+07  16.0% 16007 47075s
  1765  1604 1.5768e+07   15 2401 1.8717e+07 1.5719e+07  16.0% 16029 47504s
  1769  1606 1.5786e+07   16 2420 1.8717e+07 1.5739e+07  15.9% 16077 47777s
  1773  1609 1.5786e+07   16 2406 1.8717e+07 1.5739e+07  15.9% 16179 47834s
  1777  1612 1.5794e+07   17 2387 1.8717e+07 1.5741e+07  15.9% 16248 47891s
  1781  1614 1.6273e+07   17 2404 1.8717e+07 1.5741e+07  15.9% 16301 48196s
  1785  1617 1.5811e+07   18 2347 1.8717e+07 1.5741e+07  15.9% 16331 48274s
  1789  1620 1.5805e+07   18 2294 1.8717e+07 1.5741e+07  15.9% 16366 48419s
  1793  1623 1.5806e+07   19 2291 1.8717e+07 1.5741e+07  15.9% 16379 48656s
  1798  1627 1.5806e+07   20 2306 1.8717e+07 1.5741e+07  15.9% 16417 48986s
  1803  1630 1.5809e+07   21 2300 1.8717e+07 1.5741e+07  15.9% 16488 49082s
  1808  1633 1.5889e+07   21 2380 1.8717e+07 1.5741e+07  15.9% 16550 49251s
  1813  1638 1.5809e+07   22 2306 1.8717e+07 1.5741e+07  15.9% 16541 49464s
  1819  1639 1.5820e+07   23 2290 1.8717e+07 1.5741e+07  15.9% 16601 49578s
  1824  1642 1.5867e+07   23 2379 1.8717e+07 1.5741e+07  15.9% 16664 49809s
  1829  1647 1.5820e+07   24 2294 1.8717e+07 1.5741e+07  15.9% 16680 50089s
  1836  1653 1.5821e+07   25 2296 1.8717e+07 1.5741e+07  15.9% 16755 50657s
  1844  1657 1.5824e+07   26 2299 1.8717e+07 1.5741e+07  15.9% 16834 51258s
  1851  1662 1.5824e+07   27 2323 1.8717e+07 1.5741e+07  15.9% 16936 51576s
  1858  1666 1.5829e+07   28 2205 1.8717e+07 1.5741e+07  15.9% 17020 51792s
  1864  1669 1.5884e+07   29 2313 1.8717e+07 1.5741e+07  15.9% 17097 52021s
  1869  1674 1.5882e+07   29 2189 1.8717e+07 1.5741e+07  15.9% 17184 52415s
  1876  1682 1.5888e+07   30 2176 1.8717e+07 1.5741e+07  15.9% 17289 52706s
  1886  1687 1.6116e+07   31 2224 1.8717e+07 1.5741e+07  15.9% 17394 52951s
  1895  1693 1.5888e+07   31 2176 1.8717e+07 1.5741e+07  15.9% 17408 53216s
  1904  1700 1.5911e+07   32 2207 1.8717e+07 1.5741e+07  15.9% 17506 53574s
  1914  1706 1.5916e+07   33 2176 1.8717e+07 1.5741e+07  15.9% 17566 53847s
  1925  1716 1.6047e+07   34 2199 1.8717e+07 1.5741e+07  15.9% 17657 54263s
  1939  1725 1.5935e+07   35 2184 1.8717e+07 1.5741e+07  15.9% 17709 54724s
  1952  1733 1.5993e+07   37 2105 1.8717e+07 1.5741e+07  15.9% 17780 55166s
  1965  1744 1.5939e+07   38 2123 1.8717e+07 1.5741e+07  15.9% 17839 55595s
  1980  1759 1.5950e+07   40 2150 1.8717e+07 1.5741e+07  15.9% 17905 55987s
  2000  1766 1.6053e+07   41 2128 1.8717e+07 1.5741e+07  15.9% 17973 56439s
  2014  1781 1.6052e+07   42 2159 1.8717e+07 1.5741e+07  15.9% 18025 56948s
  2033  1792 1.6303e+07   43 2025 1.8717e+07 1.5741e+07  15.9% 18099 57512s
  2051  1806 1.6061e+07   45 2215 1.8717e+07 1.5741e+07  15.9% 18128 58035s
  2071  1822 1.6276e+07   47 2006 1.8717e+07 1.5741e+07  15.9% 18227 58545s
  2095  1829 1.6130e+07   50 2103 1.8717e+07 1.5741e+07  15.9% 18263 59153s
  2112  1840 1.6155e+07   51 2141 1.8717e+07 1.5741e+07  15.9% 18354 59782s
  2129  1855 1.6467e+07   52 2081 1.8717e+07 1.5741e+07  15.9% 18480 60383s
  2150  1873 1.6325e+07   54 2079 1.8717e+07 1.5741e+07  15.9% 18560 61053s
  2175  1896 1.6342e+07   56 2053 1.8717e+07 1.5741e+07  15.9% 18614 61628s
  2208  1920 1.6344e+07   59 1980 1.8717e+07 1.5741e+07  15.9% 18639 62157s
  2243  1941 1.6356e+07   62 2053 1.8717e+07 1.5741e+07  15.9% 18651 62673s
  2276  1968 1.6357e+07   65 1979 1.8717e+07 1.5741e+07  15.9% 18713 63358s
  2316  1998 1.6400e+07   68 1998 1.8717e+07 1.5741e+07  15.9% 18698 64099s
  2359  2030 1.6435e+07   72 1862 1.8717e+07 1.5741e+07  15.9% 18691 64870s
  2409  2056 1.6413e+07   76 1984 1.8717e+07 1.5741e+07  15.9% 18620 65478s
  2454  2104 1.6414e+07   80 1980 1.8717e+07 1.5741e+07  15.9% 18606 66257s
  2523  2127 1.6415e+07   85 2009 1.8717e+07 1.5741e+07  15.9% 18447 66815s
  2592  2135 1.6416e+07   89 1926 1.8717e+07 1.5741e+07  15.9% 18266 67453s
  2637  2151 1.6425e+07   93 2046 1.8717e+07 1.5741e+07  15.9% 18277 67899s
  2668  2188 1.6427e+07   97 1913 1.8717e+07 1.5741e+07  15.9% 18370 68352s
  2715  2212 1.6430e+07  102 1934 1.8717e+07 1.5741e+07  15.9% 18383 68955s
  2755  2229 1.6432e+07  106 1874 1.8717e+07 1.5741e+07  15.9% 18455 69990s
  2785  2267 1.6434e+07  110 1894 1.8717e+07 1.5741e+07  15.9% 18563 70664s
  2837  2270 1.6436e+07  115 1852 1.8717e+07 1.5741e+07  15.9% 18569 71337s
H 2855  2181                    1.870657e+07 1.5741e+07  15.9% 18617 71337s
  2858  2233 1.6545e+07  115 1946 1.8707e+07 1.5741e+07  15.9% 18638 72120s
  2913  2238 1.6440e+07  120 1967 1.8707e+07 1.5741e+07  15.9% 18678 73802s
  2938  2293 1.6441e+07  125 1920 1.8707e+07 1.5741e+07  15.9% 18698 75735s
  3005  2337 1.6461e+07  130 1944 1.8707e+07 1.5741e+07  15.9% 18672 78388s
  3072  2383 1.6478e+07  136 1893 1.8707e+07 1.5741e+07  15.9% 18670 81515s
  3142  2428 1.6486e+07  142 1865 1.8707e+07 1.5741e+07  15.9% 18673 82613s
  3212  2460 1.6511e+07  149 1867 1.8707e+07 1.5741e+07  15.9% 18721 84798s
  3270  2500 1.6574e+07  156 1799 1.8707e+07 1.5741e+07  15.9% 18800 85923s
  3329  2530 1.6543e+07  164 1852 1.8707e+07 1.5741e+07  15.9% 18864 86331s

Cutting planes:
  Gomory: 4
  Cover: 2
  Implied bound: 664
  Projected implied bound: 75
  Clique: 1
  MIR: 465
  Flow cover: 2413
  Flow path: 1
  RLT: 403
  Relax-and-lift: 1109

Explored 3379 nodes (64724969 simplex iterations) in 86331.97 seconds (97951.04 work units)
Thread count was 4 (of 128 available processors)

Solution count 6: 1.87066e+07 1.87066e+07 1.87169e+07 ... 1.89732e+07

Time limit reached
Best objective 1.870657200000e+07, best bound 1.574131367346e+07, gap 15.8514%

Solving took 	23:58:51.983
####################################################################################################
####################################################################################################
####################################################################################################
Reached timelimit, but could find a feasible solution
####################################################################################################
Description                          Value
----------------------------  ------------
Objective (min)               18,706,572.0
Cost sailing                  14,884,757.0
Cost port visits               8,091,391.0
Cost transshipment (demands)     844,280.0
Cost transshipment (empties)     547,975.0
Penalty delayed demands        2,184,662.0
Revenue Empties                7,846,493.0
Penalty rejected demands              -0.0
Rejected demands (%)                   0.0
Omitted ports (%)                      0.0
Gap (%)                              15.85
####################################################################################################
Export solution
####################################################################################################
Overall time 	23:58:54.509

real	1438m55.898s
user	3807m2.887s
sys	0m35.826s
finished at Sat Mar 18 08:49:04 CET 2023
